p td 22 66
4 3
5 2
5 3
6 4
6 5
8 4
9 7
9 4
10 6
10 4
11 2
11 9
12 6
12 5
12 8
13 5
13 6
14 2
14 12
14 4
14 13
15 12
15 6
15 13
15 4
15 3
15 2
16 6
16 8
16 5
16 13
16 7
16 10
16 9
16 3
17 4
17 15
17 8
17 10
17 9
17 12
18 11
18 6
18 12
18 16
18 3
19 11
19 1
19 10
19 9
20 8
20 14
20 7
20 17
20 4
20 10
21 8
21 13
21 10
21 19
22 12
22 19
22 5
22 18
22 9
22 17
